certificates/rado_a15_c114_N58.cnf
c Rad2 upper bound instance: x1 + 15*x2 - x3 = 114, interval [1,58]
p cnf 58 448
1 7 8 0
-1 -7 -8 0
1 9 22 0
-1 -9 -22 0
1 10 37 0
-1 -10 -37 0
1 11 52 0
-1 -11 -52 0
2 8 0
-2 -8 0
2 9 23 0
-2 -9 -23 0
2 10 38 0
-2 -10 -38 0
2 11 53 0
-2 -11 -53 0
3 8 9 0
-3 -8 -9 0
3 9 24 0
-3 -9 -24 0
3 10 39 0
-3 -10 -39 0
3 11 54 0
-3 -11 -54 0
4 8 10 0
-4 -8 -10 0
4 9 25 0
-4 -9 -25 0
4 10 40 0
-4 -10 -40 0
4 11 55 0
-4 -11 -55 0
5 8 11 0
-5 -8 -11 0
5 9 26 0
-5 -9 -26 0
5 10 41 0
-5 -10 -41 0
5 11 56 0
-5 -11 -56 0
6 8 12 0
-6 -8 -12 0
6 9 27 0
-6 -9 -27 0
6 10 42 0
-6 -10 -42 0
6 11 57 0
-6 -11 -57 0
7 8 13 0
-7 -8 -13 0
7 9 28 0
-7 -9 -28 0
7 10 43 0
-7 -10 -43 0
7 11 58 0
-7 -11 -58 0
8 14 0
-8 -14 0
8 9 29 0
-8 -9 -29 0
8 10 44 0
-8 -10 -44 0
8 9 15 0
-8 -9 -15 0
9 30 0
-9 -30 0
9 10 45 0
-9 -10 -45 0
1 7 10 0
-1 -7 -10 0
8 10 16 0
-8 -10 -16 0
9 10 31 0
-9 -10 -31 0
10 46 0
-10 -46 0
2 7 11 0
-2 -7 -11 0
8 11 17 0
-8 -11 -17 0
9 11 32 0
-9 -11 -32 0
10 11 47 0
-10 -11 -47 0
3 7 12 0
-3 -7 -12 0
8 12 18 0
-8 -12 -18 0
9 12 33 0
-9 -12 -33 0
10 12 48 0
-10 -12 -48 0
4 7 13 0
-4 -7 -13 0
8 13 19 0
-8 -13 -19 0
9 13 34 0
-9 -13 -34 0
10 13 49 0
-10 -13 -49 0
5 7 14 0
-5 -7 -14 0
8 14 20 0
-8 -14 -20 0
9 14 35 0
-9 -14 -35 0
10 14 50 0
-10 -14 -50 0
6 7 15 0
-6 -7 -15 0
8 15 21 0
-8 -15 -21 0
9 15 36 0
-9 -15 -36 0
10 15 51 0
-10 -15 -51 0
7 16 0
-7 -16 0
8 16 22 0
-8 -16 -22 0
9 16 37 0
-9 -16 -37 0
10 16 52 0
-10 -16 -52 0
7 8 17 0
-7 -8 -17 0
8 17 23 0
-8 -17 -23 0
9 17 38 0
-9 -17 -38 0
10 17 53 0
-10 -17 -53 0
7 9 18 0
-7 -9 -18 0
8 18 24 0
-8 -18 -24 0
9 18 39 0
-9 -18 -39 0
10 18 54 0
-10 -18 -54 0
7 10 19 0
-7 -10 -19 0
8 19 25 0
-8 -19 -25 0
9 19 40 0
-9 -19 -40 0
10 19 55 0
-10 -19 -55 0
7 11 20 0
-7 -11 -20 0
8 20 26 0
-8 -20 -26 0
9 20 41 0
-9 -20 -41 0
10 20 56 0
-10 -20 -56 0
7 12 21 0
-7 -12 -21 0
8 21 27 0
-8 -21 -27 0
9 21 42 0
-9 -21 -42 0
10 21 57 0
-10 -21 -57 0
7 13 22 0
-7 -13 -22 0
8 22 28 0
-8 -22 -28 0
9 22 43 0
-9 -22 -43 0
10 22 58 0
-10 -22 -58 0
7 14 23 0
-7 -14 -23 0
8 23 29 0
-8 -23 -29 0
9 23 44 0
-9 -23 -44 0
7 15 24 0
-7 -15 -24 0
8 24 30 0
-8 -24 -30 0
9 24 45 0
-9 -24 -45 0
1 6 25 0
-1 -6 -25 0
7 16 25 0
-7 -16 -25 0
8 25 31 0
-8 -25 -31 0
9 25 46 0
-9 -25 -46 0
2 6 26 0
-2 -6 -26 0
7 17 26 0
-7 -17 -26 0
8 26 32 0
-8 -26 -32 0
9 26 47 0
-9 -26 -47 0
3 6 27 0
-3 -6 -27 0
7 18 27 0
-7 -18 -27 0
8 27 33 0
-8 -27 -33 0
9 27 48 0
-9 -27 -48 0
4 6 28 0
-4 -6 -28 0
7 19 28 0
-7 -19 -28 0
8 28 34 0
-8 -28 -34 0
9 28 49 0
-9 -28 -49 0
5 6 29 0
-5 -6 -29 0
7 20 29 0
-7 -20 -29 0
8 29 35 0
-8 -29 -35 0
9 29 50 0
-9 -29 -50 0
6 30 0
-6 -30 0
7 21 30 0
-7 -21 -30 0
8 30 36 0
-8 -30 -36 0
9 30 51 0
-9 -30 -51 0
6 7 31 0
-6 -7 -31 0
7 22 31 0
-7 -22 -31 0
8 31 37 0
-8 -31 -37 0
9 31 52 0
-9 -31 -52 0
6 8 32 0
-6 -8 -32 0
7 23 32 0
-7 -23 -32 0
8 32 38 0
-8 -32 -38 0
9 32 53 0
-9 -32 -53 0
6 9 33 0
-6 -9 -33 0
7 24 33 0
-7 -24 -33 0
8 33 39 0
-8 -33 -39 0
9 33 54 0
-9 -33 -54 0
6 10 34 0
-6 -10 -34 0
7 25 34 0
-7 -25 -34 0
8 34 40 0
-8 -34 -40 0
9 34 55 0
-9 -34 -55 0
6 11 35 0
-6 -11 -35 0
7 26 35 0
-7 -26 -35 0
8 35 41 0
-8 -35 -41 0
9 35 56 0
-9 -35 -56 0
6 12 36 0
-6 -12 -36 0
7 27 36 0
-7 -27 -36 0
8 36 42 0
-8 -36 -42 0
9 36 57 0
-9 -36 -57 0
6 13 37 0
-6 -13 -37 0
7 28 37 0
-7 -28 -37 0
8 37 43 0
-8 -37 -43 0
9 37 58 0
-9 -37 -58 0
6 14 38 0
-6 -14 -38 0
7 29 38 0
-7 -29 -38 0
8 38 44 0
-8 -38 -44 0
6 15 39 0
-6 -15 -39 0
7 30 39 0
-7 -30 -39 0
8 39 45 0
-8 -39 -45 0
1 5 40 0
-1 -5 -40 0
6 16 40 0
-6 -16 -40 0
7 31 40 0
-7 -31 -40 0
8 40 46 0
-8 -40 -46 0
2 5 41 0
-2 -5 -41 0
6 17 41 0
-6 -17 -41 0
7 32 41 0
-7 -32 -41 0
8 41 47 0
-8 -41 -47 0
3 5 42 0
-3 -5 -42 0
6 18 42 0
-6 -18 -42 0
7 33 42 0
-7 -33 -42 0
8 42 48 0
-8 -42 -48 0
4 5 43 0
-4 -5 -43 0
6 19 43 0
-6 -19 -43 0
7 34 43 0
-7 -34 -43 0
8 43 49 0
-8 -43 -49 0
5 44 0
-5 -44 0
6 20 44 0
-6 -20 -44 0
7 35 44 0
-7 -35 -44 0
8 44 50 0
-8 -44 -50 0
5 6 45 0
-5 -6 -45 0
6 21 45 0
-6 -21 -45 0
7 36 45 0
-7 -36 -45 0
8 45 51 0
-8 -45 -51 0
5 7 46 0
-5 -7 -46 0
6 22 46 0
-6 -22 -46 0
7 37 46 0
-7 -37 -46 0
8 46 52 0
-8 -46 -52 0
5 8 47 0
-5 -8 -47 0
6 23 47 0
-6 -23 -47 0
7 38 47 0
-7 -38 -47 0
8 47 53 0
-8 -47 -53 0
5 9 48 0
-5 -9 -48 0
6 24 48 0
-6 -24 -48 0
7 39 48 0
-7 -39 -48 0
8 48 54 0
-8 -48 -54 0
5 10 49 0
-5 -10 -49 0
6 25 49 0
-6 -25 -49 0
7 40 49 0
-7 -40 -49 0
8 49 55 0
-8 -49 -55 0
5 11 50 0
-5 -11 -50 0
6 26 50 0
-6 -26 -50 0
7 41 50 0
-7 -41 -50 0
8 50 56 0
-8 -50 -56 0
5 12 51 0
-5 -12 -51 0
6 27 51 0
-6 -27 -51 0
7 42 51 0
-7 -42 -51 0
8 51 57 0
-8 -51 -57 0
5 13 52 0
-5 -13 -52 0
6 28 52 0
-6 -28 -52 0
7 43 52 0
-7 -43 -52 0
8 52 58 0
-8 -52 -58 0
5 14 53 0
-5 -14 -53 0
6 29 53 0
-6 -29 -53 0
7 44 53 0
-7 -44 -53 0
5 15 54 0
-5 -15 -54 0
6 30 54 0
-6 -30 -54 0
7 45 54 0
-7 -45 -54 0
1 4 55 0
-1 -4 -55 0
5 16 55 0
-5 -16 -55 0
6 31 55 0
-6 -31 -55 0
7 46 55 0
-7 -46 -55 0
2 4 56 0
-2 -4 -56 0
5 17 56 0
-5 -17 -56 0
6 32 56 0
-6 -32 -56 0
7 47 56 0
-7 -47 -56 0
3 4 57 0
-3 -4 -57 0
5 18 57 0
-5 -18 -57 0
6 33 57 0
-6 -33 -57 0
7 48 57 0
-7 -48 -57 0
4 58 0
-4 -58 0
5 19 58 0
-5 -19 -58 0
6 34 58 0
-6 -34 -58 0
7 49 58 0
-7 -49 -58 0
