certificates/rado_a15_c114_N58.drat
8 -53 4 0
-8 -56 -58 0
-56 -58 0
d -8 -56 -58 0
56 4 0
d 56 2 4 0
-58 0
4 0
-10 0
46 0
22 0
-6 0
42 0
30 0
34 0
-9 0
27 0
45 0
31 0
33 0
37 0
-7 0
-8 0
1 0
13 0
28 0
43 0
11 0
15 0
16 0
17 0
18 0
19 0
49 0
2 0
14 0
52 0
44 0
12 0
32 0
29 0
3 0
-55 0
0
